663
1   1   0    0    0 0
1   2   83   138  0 26 7 54 13 57 15 27 52 34 0
1   3   15   50   0 75 67 0
2   1   46   102  0 48 21 61 28 74 0
2   2   44   122  0 29 45 4 68 2 30 0
2   3   62   123  0 5 37 20 70 60 71 69 36 47 0
3   1   42   129  0 38 65 66 11 53 0
3   2   0    0    0 0
3   3   59   123  0 14 59 19 8 46 35 0
4   1   93   140  0 72 31 10 58 12 17 6 51 0
4   2   86   135  0 16 49 24 18 55 25 50 44 3 0
4   3   36   106  0 32 9 39 40 0
5   1   48   103  0 33 63 23 56 41 43 0
5   2   0    0    0 0
5   3   49   93   0 1 73 62 22 64 42 0